language Essence 1.3

letting blksize_delta be
        function(1 --> 10, 2 --> 10, 3 --> 10, 4 --> 10, 5 --> 10, 6 --> 10, 7 --> 10, 8 --> 10, 9 --> 10, 10 --> 10,
                 11 --> 10, 12 --> 10, 13 --> 10, 14 --> 10, 15 --> 10, 16 --> 10, 17 --> 10, 18 --> 10, 19 --> 10,
                 20 --> 10, 21 --> 10, 22 --> 10, 23 --> 10, 24 --> 10, 25 --> 10, 26 --> 10, 27 --> 10, 28 --> 10,
                 29 --> 10, 30 --> 10, 31 --> 10, 32 --> 10, 33 --> 10, 34 --> 10, 35 --> 10, 36 --> 10, 37 --> 10,
                 38 --> 10, 39 --> 10, 40 --> 10, 41 --> 10, 42 --> 10, 43 --> 10, 44 --> 10, 45 --> 10, 46 --> 10,
                 47 --> 10, 48 --> 10, 49 --> 10, 50 --> 10, 51 --> 10, 52 --> 10, 53 --> 10, 54 --> 10)
letting maxcars be
        function(1 --> 8, 2 --> 8, 3 --> 8, 4 --> 8, 5 --> 8, 6 --> 8, 7 --> 8, 8 --> 8, 9 --> 10, 10 --> 8, 11 --> 8,
                 12 --> 8, 13 --> 8, 14 --> 8, 15 --> 8, 16 --> 8, 17 --> 8, 18 --> 8, 19 --> 8, 20 --> 8, 21 --> 8,
                 22 --> 8, 23 --> 8, 24 --> 8, 25 --> 8, 26 --> 8, 27 --> 8, 28 --> 10, 29 --> 8, 30 --> 8, 31 --> 9,
                 32 --> 9, 33 --> 8, 34 --> 8, 35 --> 8, 36 --> 8, 37 --> 8, 38 --> 8, 39 --> 8, 40 --> 9, 41 --> 8,
                 42 --> 8, 43 --> 9, 44 --> 8, 45 --> 8, 46 --> 9, 47 --> 8, 48 --> 8, 49 --> 8, 50 --> 8, 51 --> 8,
                 52 --> 8, 53 --> 9, 54 --> 10)
letting n_cars be 162
letting n_classes be 19
letting n_options be 54
letting quantity be
        function(1 --> 7, 2 --> 7, 3 --> 7, 4 --> 7, 5 --> 7, 6 --> 7, 7 --> 7, 8 --> 7, 9 --> 7, 10 --> 7, 11 --> 7,
                 12 --> 7, 13 --> 7, 14 --> 7, 15 --> 7, 16 --> 9, 17 --> 16, 18 --> 16, 19 --> 16)
letting usage be
        relation((1, 9), (1, 20), (1, 24), (1, 54), (2, 22), (2, 33), (3, 2), (3, 13), (3, 14), (3, 24), (3, 35),
                 (3, 46), (3, 49), (4, 3), (4, 8), (4, 16), (4, 33), (4, 38), (4, 44), (4, 47), (5, 2), (5, 11),
                 (5, 16), (5, 31), (5, 40), (5, 51), (5, 52), (6, 5), (7, 12), (7, 20), (7, 22), (7, 30), (7, 41),
                 (7, 48), (8, 11), (8, 35), (8, 37), (9, 5), (9, 7), (9, 16), (9, 21), (9, 29), (9, 46), (9, 51),
                 (10, 9), (10, 46), (10, 50), (11, 15), (11, 19), (11, 22), (11, 28), (11, 40), (11, 41), (12, 17),
                 (12, 19), (12, 25), (12, 26), (12, 30), (12, 36), (12, 53), (13, 9), (13, 11), (13, 15), (13, 20),
                 (13, 34), (13, 51), (14, 2), (14, 4), (14, 12), (14, 13), (14, 23), (14, 24), (14, 28), (14, 38),
                 (15, 17), (15, 18), (15, 33), (15, 38), (15, 45), (16, 27), (16, 41), (16, 48), (17, 4), (17, 6),
                 (17, 7), (17, 8), (17, 22), (17, 53), (18, 21), (18, 36), (18, 39), (18, 48), (18, 51), (19, 1),
                 (19, 10), (19, 17), (19, 21), (19, 22), (19, 32), (19, 33), (19, 37), (19, 42), (19, 43), (19, 46))
$ Visualisation for usage
$  1  9
$  1 20
$  1 24
$  1 54
$  2 22
$  2 33
$  3  2
$  3 13
$  3 14
$  3 24
$  3 35
$  3 46
$  3 49
$  4  3
$  4  8
$  4 16
$  4 33
$  4 38
$  4 44
$  4 47
$  5  2
$  5 11
$  5 16
$  5 31
$  5 40
$  5 51
$  5 52
$  6  5
$  7 12
$  7 20
$  7 22
$  7 30
$  7 41
$  7 48
$  8 11
$  8 35
$  8 37
$  9  5
$  9  7
$  9 16
$  9 21
$  9 29
$  9 46
$  9 51
$ 10  9
$ 10 46
$ 10 50
$ 11 15
$ 11 19
$ 11 22
$ 11 28
$ 11 40
$ 11 41
$ 12 17
$ 12 19
$ 12 25
$ 12 26
$ 12 30
$ 12 36
$ 12 53
$ 13  9
$ 13 11
$ 13 15
$ 13 20
$ 13 34
$ 13 51
$ 14  2
$ 14  4
$ 14 12
$ 14 13
$ 14 23
$ 14 24
$ 14 28
$ 14 38
$ 15 17
$ 15 18
$ 15 33
$ 15 38
$ 15 45
$ 16 27
$ 16 41
$ 16 48
$ 17  4
$ 17  6
$ 17  7
$ 17  8
$ 17 22
$ 17 53
$ 18 21
$ 18 36
$ 18 39
$ 18 48
$ 18 51
$ 19  1
$ 19 10
$ 19 17
$ 19 21
$ 19 22
$ 19 32
$ 19 33
$ 19 37
$ 19 42
$ 19 43
$ 19 46

